5 5
1 92 3 44 4 43 0 31 2 65
0 84 3 76 2 17 4 15 1 34
0 80 4 4 1 72 2 98 3 89
4 79 3 28 2 73 0 2 1 17
4 58 2 74 0 9 1 31 3 66
-1
0 1 2 4 5
0 1 3 5
0 2 3 5
0 1 3 4 5
0 1 3 4 5
-2
139 184 282 409
98 219 329
114 161 447
122 206 248 246
73 210 227 286

422 10
10 5 22 3 18
0 12 23 19 9
21 13 17 7 4
1 16 6 24 14
20 11 15 2 8
